sat

(objectives
 ((bvadd PriceProv8 (bvadd PriceProv7 (bvadd PriceProv6 (bvadd PriceProv5 (bvadd PriceProv4 (bvadd PriceProv3 (bvadd PriceProv1 PriceProv2))))))) (_ bv1424 32))
)
;; statistics
(
 :cnf-variables 1447
 :cnf-literals 5408
 :cnf-clauses 2343
 :sat-checks 11
 :sat-restarts 45
 :sat-decisions 108857
 :sat-random-decisions 45
 :sat-propagations 455599191
 :sat-theory-propagations 0
 :sat-watched-clauses-visited 516799831
 :sat-binary-watched-clauses-visited 305343381
 :sat-conflicts 32861
 :sat-theory-conflicts 0
 :theory-necessary-interface-equalities 0
 :theory-extra-interface-equalities 0
 :euf-total-calls 116762
 :euf-complete-calls 14
 :euf-conflicts 0
 :euf-implications 0
 :euf-explanations 0
 :euf-egraph-nodes-created 63126
 :euf-egraph-nodes-deleted 59932
 :euf-num-asserted-equalities 1725378
 :euf-num-asserted-inequalities 1014418
 :euf-num-merges 3411272
 :euf-num-merges-undone 3411272
 :euf-num-atoms-retold 14240
 :la-total-calls 116762
 :la-complete-calls 14
 :la-conflicts 0
 :la-implications 0
 :la-explanations 0
 :la-num-equalities-split 0
 :la-num-tableau-rows 0
 :la-num-tableau-variables 0
 :bv-total-calls 116762
 :bv-complete-calls 14
 :bv-conflicts 0
 :bv-implications 0
 :bv-explanations 0
 :fp-total-calls 116762
 :fp-complete-calls 14
 :fp-conflicts 0
 :fp-implications 0
 :fp-explanations 0
 :arr-total-calls 116762
 :arr-complete-calls 14
 :arr-conflicts 0
 :arr-implications 0
 :arr-explanations 0
 :arr-write-lemmas-added 0
 :arr-row-lemmas-added 0
 :arr-ext-lemmas-added 0
 :arr-const-lemmas-added 0
 :na-total-calls 116762
 :na-complete-calls 14
 :na-conflicts 0
 :na-implications 0
 :na-explanations 0
 :na-num_nonlinear_multiplications 0
 :na-num_axiom_checks 0
 :na-num_zero_lemmas 0
 :na-num_sign_lemmas 0
 :na-num_neutral_lemmas 0
 :na-num_proportionality_lemmas 0
 :na-num_bound_lemmas 0
 :na-num_tangent_lemmas 0
 :na-num_monotonicity_lemmas 0
 :na-num_sat_checks 0
 :na-axiom_check_time 0.000
 :na-sat_check_time 0.000
 :time-seconds 69.129
 :memory-mb 118.380
)
